certificates/rado_a5_c232_N46.cnf
c Rad2 upper bound instance: x1 + 5*x2 - x3 = 232, interval [1,46]
p cnf 46 432
1 3 46 0
-1 -3 -46 0
2 4 46 0
-2 -4 -46 0
3 5 46 0
-3 -5 -46 0
4 6 46 0
-4 -6 -46 0
5 7 46 0
-5 -7 -46 0
1 8 45 0
-1 -8 -45 0
6 8 46 0
-6 -8 -46 0
2 9 45 0
-2 -9 -45 0
7 9 46 0
-7 -9 -46 0
3 10 45 0
-3 -10 -45 0
8 10 46 0
-8 -10 -46 0
4 11 45 0
-4 -11 -45 0
9 11 46 0
-9 -11 -46 0
5 12 45 0
-5 -12 -45 0
10 12 46 0
-10 -12 -46 0
1 13 44 0
-1 -13 -44 0
6 13 45 0
-6 -13 -45 0
11 13 46 0
-11 -13 -46 0
2 14 44 0
-2 -14 -44 0
7 14 45 0
-7 -14 -45 0
12 14 46 0
-12 -14 -46 0
3 15 44 0
-3 -15 -44 0
8 15 45 0
-8 -15 -45 0
13 15 46 0
-13 -15 -46 0
4 16 44 0
-4 -16 -44 0
9 16 45 0
-9 -16 -45 0
14 16 46 0
-14 -16 -46 0
5 17 44 0
-5 -17 -44 0
10 17 45 0
-10 -17 -45 0
15 17 46 0
-15 -17 -46 0
1 18 43 0
-1 -18 -43 0
6 18 44 0
-6 -18 -44 0
11 18 45 0
-11 -18 -45 0
16 18 46 0
-16 -18 -46 0
2 19 43 0
-2 -19 -43 0
7 19 44 0
-7 -19 -44 0
12 19 45 0
-12 -19 -45 0
17 19 46 0
-17 -19 -46 0
3 20 43 0
-3 -20 -43 0
8 20 44 0
-8 -20 -44 0
13 20 45 0
-13 -20 -45 0
18 20 46 0
-18 -20 -46 0
4 21 43 0
-4 -21 -43 0
9 21 44 0
-9 -21 -44 0
14 21 45 0
-14 -21 -45 0
19 21 46 0
-19 -21 -46 0
5 22 43 0
-5 -22 -43 0
10 22 44 0
-10 -22 -44 0
15 22 45 0
-15 -22 -45 0
20 22 46 0
-20 -22 -46 0
1 23 42 0
-1 -23 -42 0
6 23 43 0
-6 -23 -43 0
11 23 44 0
-11 -23 -44 0
16 23 45 0
-16 -23 -45 0
21 23 46 0
-21 -23 -46 0
2 24 42 0
-2 -24 -42 0
7 24 43 0
-7 -24 -43 0
12 24 44 0
-12 -24 -44 0
17 24 45 0
-17 -24 -45 0
22 24 46 0
-22 -24 -46 0
3 25 42 0
-3 -25 -42 0
8 25 43 0
-8 -25 -43 0
13 25 44 0
-13 -25 -44 0
18 25 45 0
-18 -25 -45 0
23 25 46 0
-23 -25 -46 0
4 26 42 0
-4 -26 -42 0
9 26 43 0
-9 -26 -43 0
14 26 44 0
-14 -26 -44 0
19 26 45 0
-19 -26 -45 0
24 26 46 0
-24 -26 -46 0
5 27 42 0
-5 -27 -42 0
10 27 43 0
-10 -27 -43 0
15 27 44 0
-15 -27 -44 0
20 27 45 0
-20 -27 -45 0
25 27 46 0
-25 -27 -46 0
1 28 41 0
-1 -28 -41 0
6 28 42 0
-6 -28 -42 0
11 28 43 0
-11 -28 -43 0
16 28 44 0
-16 -28 -44 0
21 28 45 0
-21 -28 -45 0
26 28 46 0
-26 -28 -46 0
2 29 41 0
-2 -29 -41 0
7 29 42 0
-7 -29 -42 0
12 29 43 0
-12 -29 -43 0
17 29 44 0
-17 -29 -44 0
22 29 45 0
-22 -29 -45 0
27 29 46 0
-27 -29 -46 0
3 30 41 0
-3 -30 -41 0
8 30 42 0
-8 -30 -42 0
13 30 43 0
-13 -30 -43 0
18 30 44 0
-18 -30 -44 0
23 30 45 0
-23 -30 -45 0
28 30 46 0
-28 -30 -46 0
4 31 41 0
-4 -31 -41 0
9 31 42 0
-9 -31 -42 0
14 31 43 0
-14 -31 -43 0
19 31 44 0
-19 -31 -44 0
24 31 45 0
-24 -31 -45 0
29 31 46 0
-29 -31 -46 0
5 32 41 0
-5 -32 -41 0
10 32 42 0
-10 -32 -42 0
15 32 43 0
-15 -32 -43 0
20 32 44 0
-20 -32 -44 0
25 32 45 0
-25 -32 -45 0
30 32 46 0
-30 -32 -46 0
1 33 40 0
-1 -33 -40 0
6 33 41 0
-6 -33 -41 0
11 33 42 0
-11 -33 -42 0
16 33 43 0
-16 -33 -43 0
21 33 44 0
-21 -33 -44 0
26 33 45 0
-26 -33 -45 0
31 33 46 0
-31 -33 -46 0
2 34 40 0
-2 -34 -40 0
7 34 41 0
-7 -34 -41 0
12 34 42 0
-12 -34 -42 0
17 34 43 0
-17 -34 -43 0
22 34 44 0
-22 -34 -44 0
27 34 45 0
-27 -34 -45 0
32 34 46 0
-32 -34 -46 0
3 35 40 0
-3 -35 -40 0
8 35 41 0
-8 -35 -41 0
13 35 42 0
-13 -35 -42 0
18 35 43 0
-18 -35 -43 0
23 35 44 0
-23 -35 -44 0
28 35 45 0
-28 -35 -45 0
33 35 46 0
-33 -35 -46 0
4 36 40 0
-4 -36 -40 0
9 36 41 0
-9 -36 -41 0
14 36 42 0
-14 -36 -42 0
19 36 43 0
-19 -36 -43 0
24 36 44 0
-24 -36 -44 0
29 36 45 0
-29 -36 -45 0
34 36 46 0
-34 -36 -46 0
5 37 40 0
-5 -37 -40 0
10 37 41 0
-10 -37 -41 0
15 37 42 0
-15 -37 -42 0
20 37 43 0
-20 -37 -43 0
25 37 44 0
-25 -37 -44 0
30 37 45 0
-30 -37 -45 0
35 37 46 0
-35 -37 -46 0
1 38 39 0
-1 -38 -39 0
6 38 40 0
-6 -38 -40 0
11 38 41 0
-11 -38 -41 0
16 38 42 0
-16 -38 -42 0
21 38 43 0
-21 -38 -43 0
26 38 44 0
-26 -38 -44 0
31 38 45 0
-31 -38 -45 0
36 38 46 0
-36 -38 -46 0
2 39 0
-2 -39 0
7 39 40 0
-7 -39 -40 0
12 39 41 0
-12 -39 -41 0
17 39 42 0
-17 -39 -42 0
22 39 43 0
-22 -39 -43 0
27 39 44 0
-27 -39 -44 0
32 39 45 0
-32 -39 -45 0
37 39 46 0
-37 -39 -46 0
3 39 40 0
-3 -39 -40 0
8 40 0
-8 -40 0
13 40 41 0
-13 -40 -41 0
18 40 42 0
-18 -40 -42 0
23 40 43 0
-23 -40 -43 0
28 40 44 0
-28 -40 -44 0
33 40 45 0
-33 -40 -45 0
38 40 46 0
-38 -40 -46 0
4 39 41 0
-4 -39 -41 0
9 40 41 0
-9 -40 -41 0
14 41 0
-14 -41 0
19 41 42 0
-19 -41 -42 0
24 41 43 0
-24 -41 -43 0
29 41 44 0
-29 -41 -44 0
34 41 45 0
-34 -41 -45 0
39 41 46 0
-39 -41 -46 0
5 39 42 0
-5 -39 -42 0
10 40 42 0
-10 -40 -42 0
15 41 42 0
-15 -41 -42 0
20 42 0
-20 -42 0
25 42 43 0
-25 -42 -43 0
30 42 44 0
-30 -42 -44 0
35 42 45 0
-35 -42 -45 0
40 42 46 0
-40 -42 -46 0
1 38 43 0
-1 -38 -43 0
6 39 43 0
-6 -39 -43 0
11 40 43 0
-11 -40 -43 0
16 41 43 0
-16 -41 -43 0
21 42 43 0
-21 -42 -43 0
26 43 0
-26 -43 0
31 43 44 0
-31 -43 -44 0
36 43 45 0
-36 -43 -45 0
41 43 46 0
-41 -43 -46 0
2 38 44 0
-2 -38 -44 0
7 39 44 0
-7 -39 -44 0
12 40 44 0
-12 -40 -44 0
17 41 44 0
-17 -41 -44 0
22 42 44 0
-22 -42 -44 0
27 43 44 0
-27 -43 -44 0
32 44 0
-32 -44 0
37 44 45 0
-37 -44 -45 0
42 44 46 0
-42 -44 -46 0
3 38 45 0
-3 -38 -45 0
8 39 45 0
-8 -39 -45 0
13 40 45 0
-13 -40 -45 0
18 41 45 0
-18 -41 -45 0
23 42 45 0
-23 -42 -45 0
28 43 45 0
-28 -43 -45 0
33 44 45 0
-33 -44 -45 0
38 45 0
-38 -45 0
43 45 46 0
-43 -45 -46 0
4 38 46 0
-4 -38 -46 0
9 39 46 0
-9 -39 -46 0
14 40 46 0
-14 -40 -46 0
19 41 46 0
-19 -41 -46 0
24 42 46 0
-24 -42 -46 0
29 43 46 0
-29 -43 -46 0
34 44 46 0
-34 -44 -46 0
39 45 46 0
-39 -45 -46 0
44 46 0
-44 -46 0
