certificates/rado_a5_c232_N46.drat
-46 0
44 0
-32 0
30 0
34 0
-18 0
-42 0
-22 0
16 0
20 0
40 0
24 0
10 0
-4 0
-28 0
-8 0
-12 0
-2 0
-36 0
0
